&INNBODY6
KSTART=1,TCOMP=1.E8,TCRTP0=1000.0,isernb=40,iserreg=40,iserks=0 /

&ININPUT
N=1000000,NFIX=1,NCRIT=10,NRAND=43532,NNBOPT=80,NRUN=1,NCOMM=1,
ETAI=0.01,ETAR=0.01,RS0=0.15,DTADJ=1.0,DELTAT=1.0,TCRIT=1.0,QE=1.0,RBAR=1.0,ZMBAR=0.7,
KZ(1:10)= 1 1 1 0 1 0 4 0 0 2
KZ(11:20)=0 1 0 2 2 0 0 0 3 6
KZ(21:30)=1 0 2 0 2 2 3 2 0 2
KZ(31:40)=1 0 2 2 1 0 1 1 2 1
KZ(41:50)=0 0 0 0 0 0 0 0 1 0 ,
DTMIN=6.0E-7,RMIN=1.0E-05,ETAU=0.1,ECLOSE=1.0,GMIN=1.0E-06,GMAX=0.01,SMAX=1.0,
LEVEL='C' /

&INSSE /

&INBSE /

&INCOLL /

&INDATA
ALPHAS=2.35,BODY1=150.0,BODYN=0.08,NBIN0=0,NHI0=0,ZMET=0.001,EPOCH0=0.0,DTPLOT=1.0 /

&INSCALE
Q=0.5,VXROT=0.0,VZROT=0.0,RTIDE=0.0 /

&INXTRNL0
GMG=1.78E11,RG0=13.3 /

&INBINPOP
SEMI0=0.0005, ECC0=-1.0, RATIO=1.0, RANGE=5.0, NSKIP=5, IDORM=0 /
